c uprop, v00.0, 
c reading from data/prog403.c.cnf
c done reading: 0
p cnf 182 874
-87 -108 0
-87 -104 0
87 104 108 0
-81 104 108 0
-81 -104 -108 0
81 104 -108 0
81 -104 108 0
87 -99 0
-97 -99 0
-87 97 99 0
-87 -92 97 0
87 -92 -97 0
87 92 97 0
-87 92 -97 0
-88 99 0
-85 -88 0
85 88 -99 0
-83 85 -99 0
-83 -85 99 0
83 85 99 0
83 -85 -99 0
-82 88 0
-79 -82 0
79 82 -88 0
79 -88 -106 0
-79 88 -106 0
79 88 106 0
-79 -88 106 0
82 -110 0
-101 -110 0
-82 101 110 0
-82 101 -111 0
82 -101 -111 0
82 101 111 0
-82 -101 111 0
110 -112 0
-94 -112 0
94 -110 112 0
94 -110 -113 0
-94 110 -113 0
94 110 113 0
-94 -110 113 0
112 -114 0
-90 -114 0
90 -112 114 0
90 -112 -115 0
-90 112 -115 0
90 112 115 0
-90 -112 115 0
85 -116 0
108 -116 0
-85 -108 116 0
-85 -108 -117 0
85 108 -117 0
-85 108 117 0
85 -108 117 0
-79 -104 118 0
-79 -116 118 0
-104 -116 118 0
79 104 -118 0
79 116 -118 0
104 116 -118 0
79 -118 -119 0
104 -118 -119 0
116 -118 -119 0
-79 118 119 0
-104 118 119 0
-116 118 119 0
-79 -104 -116 119 0
79 104 116 -119 0
-97 -101 120 0
-101 -118 120 0
-97 -118 120 0
97 101 -120 0
101 118 -120 0
97 118 -120 0
101 -120 -121 0
97 -120 -121 0
118 -120 -121 0
-101 120 121 0
-97 120 121 0
-118 120 121 0
-97 -101 -118 121 0
97 101 118 -121 0
-85 -94 122 0
-94 -120 122 0
-85 -120 122 0
85 94 -122 0
94 120 -122 0
85 120 -122 0
-77 94 -122 0
-77 85 -122 0
-77 120 -122 0
77 -94 122 0
77 -85 122 0
77 -120 122 0
77 -85 -94 -120 0
-77 85 94 120 0
76 -79 -90 0
76 -90 -122 0
76 -79 -122 0
-76 79 90 0
-76 90 122 0
-76 79 122 0
-75 -76 90 0
-75 -76 79 0
-75 -76 122 0
75 76 -90 0
75 76 -79 0
75 76 -122 0
75 -79 -90 -122 0
-75 79 90 122 0
-74 101 0
-74 76 0
74 -76 -101 0
-73 -76 -101 0
-73 76 101 0
73 76 -101 0
73 -76 101 0
-72 94 0
-72 74 0
72 -74 -94 0
-74 -94 -107 0
74 94 -107 0
74 -94 107 0
-74 94 107 0
90 -103 0
72 -103 0
-72 -90 103 0
-72 -90 -96 0
72 90 -96 0
72 -90 96 0
-72 90 96 0
-84 -108 0
-84 -104 0
84 104 108 0
-78 104 108 0
-78 -104 -108 0
78 104 -108 0
78 -104 108 0
84 -100 0
-97 -100 0
-84 97 100 0
-84 -93 97 0
84 -93 -97 0
84 93 97 0
-84 93 -97 0
-89 100 0
-89 -117 0
89 -100 117 0
-71 -100 117 0
-71 100 -117 0
71 100 117 0
71 -100 -117 0
-70 89 0
-70 -119 0
70 -89 119 0
-69 -89 119 0
-69 89 -119 0
69 89 119 0
69 -89 -119 0
-68 70 0
-68 -121 0
68 -70 121 0
-67 -70 121 0
-67 70 -121 0
67 70 121 0
67 -70 -121 0
-66 68 0
-66 -77 0
66 -68 77 0
-65 -68 77 0
-65 68 -77 0
65 68 77 0
65 -68 -77 0
-64 66 0
-64 -75 0
64 -66 75 0
-63 -66 75 0
-63 66 -75 0
63 66 75 0
63 -66 -75 0
-62 64 0
-62 -73 0
62 -64 73 0
-61 -64 73 0
-61 64 -73 0
61 64 73 0
61 -64 -73 0
-60 62 0
-60 -107 0
60 -62 107 0
-59 -62 107 0
-59 62 -107 0
59 62 107 0
59 -62 -107 0
-58 60 0
-58 -96 0
58 -60 96 0
-57 -60 96 0
-57 60 -96 0
57 60 96 0
57 -60 -96 0
-56 58 0
-56 -103 0
56 -58 103 0
-58 103 -123 0
58 -103 -123 0
58 103 123 0
-58 -103 123 0
-124 -126 0
-126 -127 0
124 126 127 0
124 127 -129 0
-124 -127 -129 0
-124 127 129 0
124 -127 129 0
126 -130 0
-130 -131 0
-126 130 131 0
-126 131 -133 0
126 -131 -133 0
126 131 133 0
-126 -131 133 0
130 -134 0
-134 -135 0
-130 134 135 0
-130 135 -137 0
130 -135 -137 0
130 135 137 0
-130 -135 137 0
134 -138 0
-138 -139 0
-134 138 139 0
-134 139 -141 0
134 -139 -141 0
134 139 141 0
-134 -139 141 0
138 -142 0
-142 -143 0
-138 142 143 0
-138 143 -145 0
138 -143 -145 0
138 143 145 0
-138 -143 145 0
142 -146 0
-146 -147 0
-142 146 147 0
-142 147 -149 0
142 -147 -149 0
142 147 149 0
-142 -147 149 0
146 -150 0
-150 -151 0
-146 150 151 0
-146 151 -153 0
146 -151 -153 0
146 151 153 0
-146 -151 153 0
127 -154 0
124 -154 0
-124 -127 154 0
-124 -127 -155 0
124 127 -155 0
124 -127 155 0
-124 127 155 0
-127 -131 156 0
-131 -154 156 0
-127 -154 156 0
127 131 -156 0
131 154 -156 0
127 154 -156 0
131 -156 -157 0
127 -156 -157 0
154 -156 -157 0
-131 156 157 0
-127 156 157 0
-154 156 157 0
-127 -131 -154 157 0
127 131 154 -157 0
-131 -135 158 0
-135 -156 158 0
-131 -156 158 0
131 135 -158 0
135 156 -158 0
131 156 -158 0
135 -158 -159 0
131 -158 -159 0
156 -158 -159 0
-135 158 159 0
-131 158 159 0
-156 158 159 0
-131 -135 -156 159 0
131 135 156 -159 0
-135 -139 160 0
-139 -158 160 0
-135 -158 160 0
135 139 -160 0
139 158 -160 0
135 158 -160 0
139 -160 -161 0
135 -160 -161 0
158 -160 -161 0
-139 160 161 0
-135 160 161 0
-158 160 161 0
-135 -139 -158 161 0
135 139 158 -161 0
-139 -143 162 0
-143 -160 162 0
-139 -160 162 0
139 143 -162 0
143 160 -162 0
139 160 -162 0
143 -162 -163 0
139 -162 -163 0
160 -162 -163 0
-143 162 163 0
-139 162 163 0
-160 162 163 0
-139 -143 -160 163 0
139 143 160 -163 0
-143 -147 164 0
-147 -162 164 0
-143 -162 164 0
143 147 -164 0
147 162 -164 0
143 162 -164 0
147 -164 -165 0
143 -164 -165 0
162 -164 -165 0
-147 164 165 0
-143 164 165 0
-162 164 165 0
-143 -147 -162 165 0
143 147 162 -165 0
-147 -151 166 0
-151 -164 166 0
-147 -164 166 0
147 151 -166 0
151 164 -166 0
147 164 -166 0
151 -166 -167 0
147 -166 -167 0
164 -166 -167 0
-151 166 167 0
-147 166 167 0
-164 166 167 0
-147 -151 -164 167 0
147 151 164 -167 0
151 -168 0
166 -168 0
-151 -166 168 0
-151 -166 -169 0
151 166 -169 0
-151 166 169 0
151 -166 169 0
157 -170 0
124 -170 0
-124 -157 170 0
-124 -157 -171 0
124 157 -171 0
124 -157 171 0
-124 157 171 0
-127 -159 172 0
-159 -170 172 0
-127 -170 172 0
127 159 -172 0
159 170 -172 0
127 170 -172 0
159 -172 -173 0
127 -172 -173 0
170 -172 -173 0
-159 172 173 0
-127 172 173 0
-170 172 173 0
-127 -159 -170 173 0
127 159 170 -173 0
-131 -161 174 0
-161 -172 174 0
-131 -172 174 0
131 161 -174 0
161 172 -174 0
131 172 -174 0
161 -174 -175 0
131 -174 -175 0
172 -174 -175 0
-161 174 175 0
-131 174 175 0
-172 174 175 0
-131 -161 -172 175 0
131 161 172 -175 0
-135 -163 176 0
-163 -174 176 0
-135 -174 176 0
135 163 -176 0
163 174 -176 0
135 174 -176 0
163 -176 -177 0
135 -176 -177 0
174 -176 -177 0
-163 176 177 0
-135 176 177 0
-174 176 177 0
-135 -163 -174 177 0
135 163 174 -177 0
-139 -165 178 0
-165 -176 178 0
-139 -176 178 0
139 165 -178 0
165 176 -178 0
139 176 -178 0
165 -178 -179 0
139 -178 -179 0
176 -178 -179 0
-165 178 179 0
-139 178 179 0
-176 178 179 0
-139 -165 -176 179 0
139 165 176 -179 0
-143 -167 180 0
-167 -178 180 0
-143 -178 180 0
143 167 -180 0
167 178 -180 0
143 178 -180 0
167 -180 -181 0
143 -180 -181 0
178 -180 -181 0
-167 180 181 0
-143 180 181 0
-178 180 181 0
-143 -167 -178 181 0
143 167 178 -181 0
-147 -169 182 0
-169 -180 182 0
-147 -180 182 0
147 169 -182 0
169 180 -182 0
147 180 -182 0
-109 169 -182 0
-109 147 -182 0
-109 180 -182 0
109 -169 182 0
109 -147 182 0
109 -180 182 0
109 -147 -169 -180 0
-109 147 169 180 0
105 -151 -168 0
105 -168 -182 0
105 -151 -182 0
-105 151 168 0
-105 168 182 0
-105 151 182 0
-98 -105 168 0
-98 -105 151 0
-98 -105 182 0
98 105 -168 0
98 105 -151 0
98 105 -182 0
98 -151 -168 -182 0
-98 151 168 182 0
-86 173 0
-86 124 0
86 -124 -173 0
-80 -124 -173 0
-80 124 173 0
80 124 -173 0
80 -124 173 0
102 -127 -175 0
-86 102 -175 0
-86 102 -127 0
-102 127 175 0
86 -102 175 0
86 -102 127 0
-95 -102 175 0
-95 -102 127 0
86 -95 -102 0
95 102 -175 0
95 102 -127 0
-86 95 102 0
-86 95 -127 -175 0
86 -95 127 175 0
91 -131 -177 0
91 -102 -177 0
91 -102 -131 0
-91 131 177 0
-91 102 177 0
-91 102 131 0
-91 -125 177 0
-91 -125 131 0
-91 102 -125 0
91 125 -177 0
91 125 -131 0
91 -102 125 0
-102 125 -131 -177 0
102 -125 131 177 0
128 -135 -179 0
-91 128 -179 0
-91 128 -135 0
-128 135 179 0
91 -128 179 0
91 -128 135 0
-128 -132 179 0
-128 -132 135 0
91 -128 -132 0
128 132 -179 0
128 132 -135 0
-91 128 132 0
-91 132 -135 -179 0
91 -132 135 179 0
136 -139 -181 0
-128 136 -181 0
-128 136 -139 0
-136 139 181 0
128 -136 181 0
128 -136 139 0
-136 -140 181 0
-136 139 -140 0
128 -136 -140 0
136 140 -181 0
136 -139 140 0
-128 136 140 0
-128 -139 140 -181 0
128 139 -140 181 0
-109 -143 144 0
-109 -136 144 0
-136 -143 144 0
109 143 -144 0
109 136 -144 0
136 143 -144 0
109 -144 -148 0
143 -144 -148 0
136 -144 -148 0
-109 144 148 0
-143 144 148 0
-136 144 148 0
-109 -136 -143 148 0
109 136 143 -148 0
-98 -147 152 0
-98 -144 152 0
-144 -147 152 0
98 147 -152 0
98 144 -152 0
144 147 -152 0
-55 98 -152 0
-55 147 -152 0
-55 144 -152 0
55 -98 152 0
55 -147 152 0
55 -144 152 0
55 -98 -144 -147 0
-55 98 144 147 0
54 -105 -151 0
54 -105 -152 0
54 -151 -152 0
-54 105 151 0
-54 105 152 0
-54 151 152 0
-53 -54 105 0
-53 -54 151 0
-53 -54 152 0
53 54 -105 0
53 54 -151 0
53 54 -152 0
53 -105 -151 -152 0
-53 105 151 152 0
-52 95 0
-52 124 0
52 -95 -124 0
-51 -95 -124 0
-51 95 124 0
51 -95 124 0
51 95 -124 0
50 -125 -127 0
50 -52 -125 0
50 -52 -127 0
-50 125 127 0
-50 52 125 0
-50 52 127 0
-49 -50 125 0
-49 -50 127 0
-49 -50 52 0
49 50 -125 0
49 50 -127 0
49 50 -52 0
49 -52 -125 -127 0
-49 52 125 127 0
48 -131 -132 0
48 -50 -132 0
48 -50 -131 0
-48 131 132 0
-48 50 132 0
-48 50 131 0
-47 -48 132 0
-47 -48 131 0
-47 -48 50 0
47 48 -132 0
47 48 -131 0
47 48 -50 0
47 -50 -131 -132 0
-47 50 131 132 0
46 -135 -140 0
46 -48 -140 0
46 -48 -135 0
-46 135 140 0
-46 48 140 0
-46 48 135 0
-45 -46 140 0
-45 -46 135 0
-45 -46 48 0
45 46 -140 0
45 46 -135 0
45 46 -48 0
45 -48 -135 -140 0
-45 48 135 140 0
44 -139 -148 0
44 -46 -148 0
44 -46 -139 0
-44 139 148 0
-44 46 148 0
-44 46 139 0
-43 -44 148 0
-43 -44 139 0
-43 -44 46 0
43 44 -148 0
43 44 -139 0
43 44 -46 0
43 -46 -139 -148 0
-43 46 139 148 0
42 -55 -143 0
42 -44 -55 0
42 -44 -143 0
-42 55 143 0
-42 44 55 0
-42 44 143 0
-41 -42 55 0
-41 -42 143 0
-41 -42 44 0
41 42 -55 0
41 42 -143 0
41 42 -44 0
41 -44 -55 -143 0
-41 44 55 143 0
40 -53 -147 0
40 -42 -53 0
40 -42 -147 0
-40 53 147 0
-40 42 53 0
-40 42 147 0
-39 -40 53 0
-39 -40 147 0
-39 -40 42 0
39 40 -53 0
39 40 -147 0
39 40 -42 0
39 -42 -53 -147 0
-39 42 53 147 0
38 -54 -151 0
38 -40 -54 0
38 -40 -151 0
-38 54 151 0
-38 40 54 0
-38 40 151 0
-37 -38 54 0
-37 -38 151 0
-37 -38 40 0
37 38 -54 0
37 38 -151 0
37 38 -40 0
37 -40 -54 -151 0
-37 40 54 151 0
-36 -124 0
-36 -155 0
36 124 155 0
-35 124 155 0
-35 -124 -155 0
35 -124 155 0
35 124 -155 0
-34 36 0
-34 -171 0
34 -36 171 0
-33 -36 171 0
-33 36 -171 0
33 36 171 0
33 -36 -171 0
-32 34 0
-32 -80 0
32 -34 80 0
-31 -34 80 0
-31 34 -80 0
31 34 80 0
31 -34 -80 0
-30 32 0
-30 -51 0
30 -32 51 0
-29 -32 51 0
-29 32 -51 0
29 32 51 0
29 -32 -51 0
-28 30 0
-28 -49 0
28 -30 49 0
-27 -30 49 0
-27 30 -49 0
27 30 49 0
27 -30 -49 0
-26 28 0
-26 -47 0
26 -28 47 0
-25 -28 47 0
-25 28 -47 0
25 28 47 0
25 -28 -47 0
-24 26 0
-24 -45 0
24 -26 45 0
-23 -26 45 0
-23 26 -45 0
23 26 45 0
23 -26 -45 0
-22 24 0
-22 -43 0
22 -24 43 0
-21 -24 43 0
-21 24 -43 0
21 24 43 0
21 -24 -43 0
-20 22 0
-20 -41 0
20 -22 41 0
-19 -22 41 0
-19 22 -41 0
19 22 41 0
19 -22 -41 0
-18 20 0
-18 -39 0
18 -20 39 0
-17 -20 39 0
-17 20 -39 0
17 20 39 0
17 -20 -39 0
-16 18 0
-16 -37 0
16 -18 37 0
-15 -18 37 0
-15 18 -37 0
15 18 37 0
15 -18 -37 0
-14 16 0
-14 -38 0
14 -16 38 0
-13 -16 38 0
-13 16 -38 0
13 16 38 0
13 -16 -38 0
-12 108 0
-12 124 0
12 -108 -124 0
-108 124 0
108 -124 0
11 -104 -155 0
11 -12 -104 0
11 -12 -155 0
-11 104 155 0
-11 12 104 0
-11 12 155 0
11 -104 0
11 -155 0
11 -12 0
-12 -104 -155 0
10 -97 -171 0
10 -11 -97 0
10 -11 -171 0
-10 97 171 0
-10 11 97 0
-10 11 171 0
10 -97 0
10 -171 0
10 -11 0
-11 -97 -171 0
9 -80 -117 0
9 -10 -117 0
9 -10 -80 0
-9 80 117 0
-9 10 117 0
-9 10 80 0
9 -117 0
9 -80 0
9 -10 0
-10 -80 -117 0
8 -51 -119 0
8 -9 -119 0
8 -9 -51 0
-8 51 119 0
-8 9 119 0
-8 9 51 0
8 -119 0
8 -51 0
8 -9 0
-9 -51 -119 0
7 -49 -121 0
7 -8 -121 0
7 -8 -49 0
-7 49 121 0
-7 8 121 0
-7 8 49 0
-7 121 0
-7 49 0
-7 8 0
8 49 121 0
6 -47 -77 0
6 -7 -77 0
6 -7 -47 0
-6 47 77 0
-6 7 77 0
-6 7 47 0
-6 77 0
-6 47 0
-6 7 0
7 47 77 0
5 -45 -75 0
5 -6 -75 0
5 -6 -45 0
-5 45 75 0
-5 6 75 0
-5 6 45 0
-5 75 0
-5 45 0
-5 6 0
6 45 75 0
4 -43 -73 0
4 -5 -73 0
4 -5 -43 0
-4 43 73 0
-4 5 73 0
-4 5 43 0
4 -73 0
4 -43 0
4 -5 0
-5 -43 -73 0
3 -41 -107 0
3 -4 -107 0
3 -4 -41 0
-3 41 107 0
-3 4 107 0
-3 4 41 0
3 -107 0
3 -41 0
3 -4 0
-4 -41 -107 0
2 -39 -96 0
2 -3 -96 0
2 -3 -39 0
-2 39 96 0
-2 3 96 0
-2 3 39 0
2 -96 0
2 -39 0
2 -3 0
-3 -39 -96 0
1 -37 -103 0
1 -2 -103 0
1 -2 -37 0
-1 37 103 0
-1 2 103 0
-1 2 37 0
1 -103 0
1 -37 0
1 -2 0
-2 -37 -103 0
-1 -38 0
1 -38 0
-1 38 0
